c generated by sgen
p cnf 53 116
-2 -3 -4 0
-1 -3 -4 0
-1 -2 -4 0
-1 -2 -3 0
-6 -7 -8 0
-5 -7 -8 0
-5 -6 -8 0
-5 -6 -7 0
-10 -11 -12 0
-9 -11 -12 0
-9 -10 -12 0
-9 -10 -11 0
-14 -15 -16 0
-13 -15 -16 0
-13 -14 -16 0
-13 -14 -15 0
-18 -19 -20 0
-17 -19 -20 0
-17 -18 -20 0
-17 -18 -19 0
-22 -23 -24 0
-21 -23 -24 0
-21 -22 -24 0
-21 -22 -23 0
-26 -27 -28 0
-25 -27 -28 0
-25 -26 -28 0
-25 -26 -27 0
-30 -31 -32 0
-29 -31 -32 0
-29 -30 -32 0
-29 -30 -31 0
-34 -35 -36 0
-33 -35 -36 0
-33 -34 -36 0
-33 -34 -35 0
-38 -39 -40 0
-37 -39 -40 0
-37 -38 -40 0
-37 -38 -39 0
-42 -43 -44 0
-41 -43 -44 0
-41 -42 -44 0
-41 -42 -43 0
-46 -47 -48 0
-45 -47 -48 0
-45 -46 -48 0
-45 -46 -47 0
-49 -50 -51 0
-49 -50 -52 0
-49 -50 -53 0
-49 -51 -52 0
-49 -51 -53 0
-49 -52 -53 0
-50 -51 -52 0
-50 -51 -53 0
-50 -52 -53 0
-51 -52 -53 0
18 4 51 0
6 4 51 0
6 18 51 0
6 18 4 0
8 10 48 0
33 10 48 0
33 8 48 0
33 8 10 0
3 36 23 0
42 36 23 0
42 3 23 0
42 3 36 0
20 28 35 0
39 28 35 0
39 20 35 0
39 20 28 0
25 16 21 0
5 16 21 0
5 25 21 0
5 25 16 0
43 50 26 0
46 50 26 0
46 43 26 0
46 43 50 0
44 14 9 0
17 14 9 0
17 44 9 0
17 44 14 0
30 41 38 0
7 41 38 0
7 30 38 0
7 30 41 0
37 11 53 0
22 11 53 0
22 37 53 0
22 37 11 0
32 15 49 0
34 15 49 0
34 32 49 0
34 32 15 0
27 12 29 0
2 12 29 0
2 27 29 0
2 27 12 0
45 24 19 0
31 24 19 0
31 45 19 0
31 45 24 0
40 52 47 0
40 52 13 0
40 52 1 0
40 47 13 0
40 47 1 0
40 13 1 0
52 47 13 0
52 47 1 0
52 13 1 0
47 13 1 0
